Version identifier: 22.1.0.0 | 2022-03-09 | 1a383f8ce
CPXPARAM_Threads                                 1
CPXPARAM_MIP_Strategy_VariableSelect             3
CPXPARAM_TimeLimit                               600
Tried aggregator 1 time.
Reduced MIP has 1825 rows, 10500 columns, and 83110 nonzeros.
Reduced MIP has 9000 binaries, 1500 generals, 0 SOSs, and 0 indicators.
Presolve time = 0.04 sec. (32.11 ticks)
Found incumbent of value 1773.000000 after 0.11 sec. (80.77 ticks)
Tried aggregator 1 time.
Detecting symmetries...
Reduced MIP has 1825 rows, 10500 columns, and 83110 nonzeros.
Reduced MIP has 9000 binaries, 1500 generals, 0 SOSs, and 0 indicators.
Presolve time = 0.05 sec. (40.15 ticks)
Probing time = 0.01 sec. (4.54 ticks)
Clique table members: 304.
MIP emphasis: balance optimality and feasibility.
MIP search method: dynamic search.
Parallel mode: none, using 1 thread.
Root relaxation solution time = 1.49 sec. (1554.23 ticks)

        Nodes                                         Cuts/
   Node  Left     Objective  IInf  Best Integer    Best Bound    ItCnt     Gap

*     0+    0                         1773.0000        0.0000           100.00%
      0     0        0.0000  1416     1773.0000        0.0000     5149  100.00%
      0     0        0.0000   704     1773.0000   ZeroHalf: 3     5511  100.00%
      0     0        0.0000   932     1773.0000      Cuts: 79     9609  100.00%
*     0+    0                           50.0000        0.0000           100.00%
*     0+    0                           42.0000        0.0000           100.00%
*     0+    0                           35.0000        0.0000           100.00%
*     0+    0                           28.0000        0.0000           100.00%
*     0+    0                           26.0000        0.0000           100.00%
*     0+    0                           25.0000        0.0000           100.00%
*     0+    0                           23.0000        0.0000           100.00%
*     0+    0                           22.0000        0.0000           100.00%
*     0+    0                           21.0000        0.0000           100.00%
*     0+    0                           19.0000        0.0000           100.00%
      0     0  -1.00000e+75     0       19.0000        0.0000     9609  100.00%
Detecting symmetries...
      0     2        0.0000   475       19.0000        0.0000     9609  100.00%
Elapsed time = 41.05 sec. (45399.87 ticks, tree = 0.01 MB, solutions = 11)
      1     3        0.0000   770       19.0000        0.0000    20209  100.00%
      2     4        0.0000   691       19.0000        0.0000    25572  100.00%
      3     5        0.0000  1119       19.0000        0.0000    31440  100.00%
      4     6        0.0000   723       19.0000        0.0000    31501  100.00%
      5     7        0.0000   727       19.0000        0.0000    34857  100.00%
      6     8        0.0000   718       19.0000        0.0000    34862  100.00%
      7     9        0.0000   831       19.0000        0.0000    36590  100.00%
      8    10        0.0000   708       19.0000        0.0000    43577  100.00%
      9    11        0.0000   900       19.0000        0.0000    49332  100.00%
     11    13        0.0000   630       19.0000        0.0000    53607  100.00%
Elapsed time = 62.52 sec. (68816.74 ticks, tree = 0.14 MB, solutions = 11)
     12    14        0.0000   791       19.0000        0.0000    62984  100.00%
     14    16       -0.0000   781       19.0000        0.0000    75236  100.00%
     16    18        0.0000   725       19.0000        0.0000    79580  100.00%
     17    19        0.0000   823       19.0000        0.0000    94121  100.00%
     18    20        0.0000   813       19.0000        0.0000    98199  100.00%
     21    23        0.0000   769       19.0000        0.0000   103182  100.00%
     23    25        0.0000   649       19.0000        0.0000   106699  100.00%
     24    26        0.0000   953       19.0000        0.0000   111812  100.00%
     26    28        0.0000   665       19.0000        0.0000   115677  100.00%
     27    29        0.0000   950       19.0000        0.0000   125611  100.00%
Elapsed time = 87.64 sec. (95002.60 ticks, tree = 0.33 MB, solutions = 11)
     29    31        0.0000   684       19.0000        0.0000   125904  100.00%
     30    32        0.0000   907       19.0000        0.0000   129962  100.00%
     31    33        0.0000   656       19.0000        0.0000   134351  100.00%
     32    34        0.0000   831       19.0000        0.0000   138008  100.00%
     33    35        0.0000   876       19.0000        0.0000   142341  100.00%
     35    37       -0.0000  1244       19.0000        0.0000   147874  100.00%
     36    38       -0.0000   914       19.0000        0.0000   151745  100.00%
     38    40        0.0000   904       19.0000        0.0000   152390  100.00%
     39    41       -0.0000  1230       19.0000        0.0000   157783  100.00%
     40    42       -0.0000   807       19.0000        0.0000   161794  100.00%
Elapsed time = 122.22 sec. (130805.32 ticks, tree = 0.47 MB, solutions = 11)
     42    44       -0.0000   708       19.0000        0.0000   165197  100.00%
     43    45       -0.0000   662       19.0000        0.0000   167938  100.00%
     45    47        0.0000   704       19.0000        0.0000   173819  100.00%
     46    48       -0.0000   621       19.0000        0.0000   176918  100.00%
     48    50       -0.0000   796       19.0000        0.0000   180572  100.00%
     49    51        0.0000   735       19.0000        0.0000   183945  100.00%
     50    52        0.0000   655       19.0000        0.0000   190061  100.00%
     52    54        0.0000   658       19.0000        0.0000   191126  100.00%
     53    55       -0.0000   668       19.0000        0.0000   195247  100.00%
     55    57        0.0000   620       19.0000        0.0000   200015  100.00%
Elapsed time = 141.43 sec. (150947.08 ticks, tree = 0.63 MB, solutions = 11)
     56    58        0.0000   801       19.0000        0.0000   204916  100.00%
     57    59        0.0000   655       19.0000        0.0000   208662  100.00%
     59    61       -0.0000   744       19.0000        0.0000   212123  100.00%
     60    62        0.0000   753       19.0000        0.0000   212153  100.00%
     61    63        0.0000   750       19.0000        0.0000   215661  100.00%
     62    64       -0.0000   837       19.0000        0.0000   224648  100.00%
     63    65        0.0000   747       19.0000        0.0000   227202  100.00%
     65    67        0.0000   866       19.0000        0.0000   243289  100.00%
     67    69       -0.0000   731       19.0000        0.0000   244320  100.00%
     68    70        0.0000   795       19.0000        0.0000   248777  100.00%
Elapsed time = 160.29 sec. (169510.41 ticks, tree = 0.81 MB, solutions = 11)
     70    72        0.0000   725       19.0000        0.0000   256392  100.00%
     71    73        0.0000   685       19.0000        0.0000   260986  100.00%
     73    75       -0.0000  1010       19.0000        0.0000   272607  100.00%
     74    76       -0.0000   938       19.0000        0.0000   276733  100.00%
     76    78        0.0000   717       19.0000        0.0000   280226  100.00%
     77    79        0.0000   722       19.0000        0.0000   283122  100.00%
     78    80       -0.0000   684       19.0000        0.0000   286942  100.00%
     79    81       -0.0000   757       19.0000        0.0000   294030  100.00%
     80    82        0.0000   681       19.0000        0.0000   294233  100.00%
     82    84        0.0000   719       19.0000        0.0000   297686  100.00%
Elapsed time = 180.52 sec. (190260.98 ticks, tree = 1.02 MB, solutions = 11)
     84    86        0.0000   695       19.0000        0.0000   300938  100.00%
     85    87       -0.0000   639       19.0000        0.0000   304351  100.00%
     87    89       -0.0000   616       19.0000        0.0000   307771  100.00%
     89    91       -0.0000   775       19.0000        0.0000   312120  100.00%
     90    92        0.0000   638       19.0000        0.0000   314832  100.00%
     91    93        0.0000   659       19.0000        0.0000   317336  100.00%
     93    95        0.0000   686       19.0000        0.0000   318394  100.00%
     94    96        0.0000   701       19.0000        0.0000   320851  100.00%
     96    98        0.0000   651       19.0000        0.0000   322335  100.00%
     98   100       -0.0000   575       19.0000        0.0000   325853  100.00%
Elapsed time = 196.07 sec. (206208.98 ticks, tree = 1.31 MB, solutions = 11)
    100   102        0.0000   583       19.0000        0.0000   327653  100.00%
    102   104        0.0000   670       19.0000        0.0000   330871  100.00%
    104   106        0.0000   609       19.0000        0.0000   335441  100.00%
    105   107        0.0000   617       19.0000        0.0000   337739  100.00%
    106   108        0.0000   640       19.0000        0.0000   339776  100.00%
    107   109       -0.0000   618       19.0000        0.0000   342135  100.00%
    109   111       -0.0000   619       19.0000        0.0000   346000  100.00%
    110   112       -0.0000   712       19.0000        0.0000   348936  100.00%
    111   113        0.0000   651       19.0000        0.0000   353297  100.00%
    112   114       -0.0000   775       19.0000        0.0000   357482  100.00%
Elapsed time = 211.59 sec. (222120.52 ticks, tree = 1.53 MB, solutions = 11)
    114   116        0.0000   790       19.0000        0.0000   362129  100.00%
    116   118       -0.0000   589       19.0000        0.0000   364845  100.00%
    118   120       -0.0000   653       19.0000        0.0000   369099  100.00%
    119   121       -0.0000   572       19.0000        0.0000   371385  100.00%
    121   123        0.0000   680       19.0000        0.0000   374589  100.00%
    123   125        0.0000   656       19.0000        0.0000   377782  100.00%
    124   126        0.0000   724       19.0000        0.0000   380502  100.00%
    125   127       -0.0000   658       19.0000        0.0000   382565  100.00%
    126   128        0.0000   597       19.0000        0.0000   384847  100.00%
    128   130       -0.0000   601       19.0000        0.0000   391055  100.00%
Elapsed time = 228.93 sec. (240075.67 ticks, tree = 1.82 MB, solutions = 11)
    129   131        0.0000   641       19.0000        0.0000   393897  100.00%
    130   132       -0.0000   646       19.0000        0.0000   399003  100.00%
    131   133       -0.0000   711       19.0000        0.0000   401341  100.00%
    133   135        0.0000   647       19.0000        0.0000   405778  100.00%
    134   136        0.0000   631       19.0000        0.0000   409086  100.00%
    135   137        0.0000   668       19.0000        0.0000   411418  100.00%
    137   139       -0.0000   661       19.0000        0.0000   413118  100.00%
    139   141        0.0000   667       19.0000        0.0000   416260  100.00%
    140   142        0.0000   625       19.0000        0.0000   416968  100.00%
    144   146       -0.0000   661       19.0000        0.0000   425827  100.00%
Elapsed time = 249.02 sec. (260323.80 ticks, tree = 2.12 MB, solutions = 11)
    148   150        0.0000   770       19.0000        0.0000   434352  100.00%
    153   155       -0.0000   572       19.0000        0.0000   440715  100.00%
    157   159        0.0000   648       19.0000        0.0000   451040  100.00%
    160   162       -0.0000   581       19.0000        0.0000   457442  100.00%
    164   166        0.0000   670       19.0000        0.0000   467398  100.00%
    169   171       -0.0000   659       19.0000        0.0000   473728  100.00%
    173   175        0.0000   615       19.0000        0.0000   482079  100.00%
    177   179       -0.0000   536       19.0000        0.0000   490582  100.00%
    181   183       -0.0000   500       19.0000        0.0000   498735  100.00%
    185   187        0.0000   471       19.0000        0.0000   509405  100.00%
Elapsed time = 295.33 sec. (306922.32 ticks, tree = 2.86 MB, solutions = 11)
    189   191        0.0000   456       19.0000        0.0000   518966  100.00%
    194   196        0.0000   456       19.0000        0.0000   526405  100.00%
    199   201       -0.0000   486       19.0000        0.0000   536040  100.00%
    203   205        0.0000   410       19.0000        0.0000   544413  100.00%
    207   209        0.0000   360       19.0000        0.0000   553528  100.00%
    213   215        0.0000   326       19.0000        0.0000   561334  100.00%
    218   220       -0.0000   486       19.0000        0.0000   571722  100.00%
    223   225        0.0000   488       19.0000        0.0000   581279  100.00%
    227   229        0.0833   666       19.0000        0.0000   592223  100.00%
    232   234        0.0000   387       19.0000        0.0000   601289  100.00%
Elapsed time = 339.39 sec. (350904.79 ticks, tree = 3.67 MB, solutions = 11)
    236   238        0.0000   367       19.0000        0.0000   609823  100.00%
    240   242       -0.0000   529       19.0000        0.0000   620250  100.00%
    244   246       -0.0000   278       19.0000        0.0000   630173  100.00%
    249   251       -0.0000   307       19.0000        0.0000   641951  100.00%
    253   255       -0.0000   338       19.0000        0.0000   652998  100.00%
    257   259        0.0000   496       19.0000        0.0000   663892  100.00%
    260   262       -0.0000   412       19.0000        0.0000   674732  100.00%
    265   267        0.0676   578       19.0000        0.0000   688409  100.00%
    269   271       -0.0000   315       19.0000        0.0000   699444  100.00%
    273   275        0.0000   482       19.0000        0.0000   711998  100.00%
Elapsed time = 399.94 sec. (412498.92 ticks, tree = 4.40 MB, solutions = 11)
    276   278        0.1309   611       19.0000        0.0000   724433  100.00%
    280   282       -0.0000   453       19.0000        0.0000   730550  100.00%
    283   285        0.2361   670       19.0000        0.0000   742227  100.00%
    287   289        0.0000   461       19.0000        0.0000   752791  100.00%
    291   293        0.0000   613       19.0000        0.0000   766745  100.00%
    296   298        0.1077   679       19.0000        0.0000   775859  100.00%
    302   304        0.5991   769       19.0000        0.0000   782033  100.00%
    308   310        0.6707   642       19.0000        0.0000   789029  100.00%
    314   316        0.6667   507       19.0000        0.0000   796730  100.00%
    320   322        0.3064   662       19.0000        0.0000   801867  100.00%
Elapsed time = 443.01 sec. (456168.53 ticks, tree = 5.22 MB, solutions = 11)
    328   330        0.4318   683       19.0000        0.0000   805078  100.00%
    337   339        1.0036   610       19.0000        0.0000   809486  100.00%
    345   347        0.9004   653       19.0000        0.0000   813722  100.00%
    354   356        0.7261   646       19.0000        0.0000   817038  100.00%
    362   364        1.2827   701       19.0000        0.0000   821668  100.00%
    370   372        0.8895   676       19.0000        0.0000   825597  100.00%
    377   379        1.0986   742       19.0000        0.0000   830192  100.00%
    385   387        1.2600   736       19.0000        0.0000   832847  100.00%
    393   395        1.8714   860       19.0000        0.0000   837181  100.00%
    400   402        2.1925   777       19.0000        0.0000   842212  100.00%
Elapsed time = 483.46 sec. (498293.64 ticks, tree = 6.69 MB, solutions = 11)
    407   409        2.0000   577       19.0000        0.0000   846087  100.00%
    413   415        2.4830   654       19.0000        0.0000   853846  100.00%
    418   420        2.0606   634       19.0000        0.0000   861405  100.00%
    424   426        2.1637   791       19.0000        0.0000   865472  100.00%
    432   434        2.3598   731       19.0000        0.0000   868511  100.00%
    440   442        2.4283   718       19.0000        0.0000   871268  100.00%
    448   450        3.0000   400       19.0000        0.0000   875569  100.00%
    453   455        3.5530   524       19.0000        0.0000   887209  100.00%
    459   461        4.0000   376       19.0000        0.0000   895141  100.00%
    465   467        4.0000   315       19.0000        0.0000   902472  100.00%
Elapsed time = 524.14 sec. (539536.59 ticks, tree = 7.88 MB, solutions = 11)
    471   473        5.3151   642       19.0000        0.0000   914202  100.00%
    477   479        4.0888   624       19.0000        0.0000   922951  100.00%
    482   484        4.0000   461       19.0000        0.0000   930817  100.00%
    488   490        5.0000   378       19.0000        0.0000   939831  100.00%
    494   496        5.0000   395       19.0000        0.0000   949615  100.00%
Starting limited solution polishing.
    500   502        5.0000   323       19.0000        0.0000   958524  100.00%
    507   509        5.0000   362       19.0000        0.0000   966762  100.00%
    515   517        6.0000   380       19.0000        0.0000   976432  100.00%
    521   523        5.0000   348       19.0000        0.0000   984325  100.00%
    526   528       -0.0000   483       19.0000        0.0000   993121  100.00%
Elapsed time = 584.43 sec. (595875.92 ticks, tree = 9.03 MB, solutions = 11)
*   528+  528                           17.0000        0.0000           100.00%

Zero-half cuts applied:  17

Root node processing (before b&c):
  Real time             =   41.01 sec. (45368.47 ticks)
Sequential b&c:
  Real time             =  558.99 sec. (563024.24 ticks)
                          ------------
Total (root+branch&cut) =  600.01 sec. (608392.71 ticks)
Primal number of violations:	17
Dual number of violations:	0
Status:	Feasible
Time:	599.99
Sequence:
	9
	5
	16
	1
	0
	4
	13
	8
	0
	4
	13
	8
	14
	17
	11
	19
	18
	7
	13
	8
	12
	17
	13
	19
	18
	5
	20
	15
	10
	22
	20
	15
	10
	21
	24
	1
	10
	2
	23
	15
	9
	21
	16
	1
	9
	2
	20
	15
	9
	1
	0
	6
	9
	15
	12
	20
	0
	3
	18
	1
	10
	15
	10
	11
	17
	13
	17
	20
	4
	15
	10
	6
	17
	23
	22
	20
	21
	24
	15
	9
	21
	16
	1
	4
	0
	23
	2
	23
	5
	16
	5
	20
	22
	23
	2
	23
	21
	24
	22
	20
	5
	16
	5
	23
	2
	23
	21
	24
	1
	10
	2
	11
	3
	0
	4
	13
	15
	9
	21
	24
	6
	4
	15
	10
	15
	10
	1
	18
	19
	14
	8
	12
	19
	18
	19
	12
	24
	14
	19
	18
	3
	18
	19
	0
	3
	12
	8
	14
	19
	18
	19
	12
	8
	0
	3
	0
	1
	0
	3
	14
	8
	11
	7
	18
	19
	11
	17
	21
	20
	6
	17
	12
	16
	11
	7
	5
	24
	6
	9
	2
	23
	15
	10
	21
	24
	1
	4
	0
	6
	8
	9
	2
	20
	15
	10
	21
	24
	1
	9
	2
	20
	15
	9
	21
	8
	13
	4
	0
	3
	11
	2
	9
	6
	24
	21
	12
	8
	13
	4
	0
	3
	13
	17
	14
	3
	15
	10
	21
	24
	1
	9
	2
	20
	15
	9
	5
	16
	6
	4
	18
	8
	13
	7
	18
	8
	11
	7
	0
	3
	11
	17
	21
	16
	15
	12
	17
	6
	19
	18
	4
	15
	20
	21
	17
	11
	19
	0
	17
	11
	3
	0
	4
	13
	15
	9
	21
	24
	6
	4
	22
	16
	1
	10
	22
	3
	13
	17
	14
	8
	11
	7
	18
	19
	11
	17
	14
	1
	16
	5
	9
